
 102   30
  10   10   10   10   10   10   10   10   10   10   10   10   10   10   10   10   10   10   10   10   10   10   10   10   10   10   10   10   10   10

   0   0   0   0   0   0   0   0   0   0   0   0   0   0   0   0   0   0   0   0   0   0   0   0   0   0   0   0   0   0   0  36 2 3 4 5 6 7 8 9 10 11 12 13 14 15 16 17 18 19 20 21 22 23 24 25 28 29 30 32 35 36 38 42 44 45 47 51 
   2   0   0   0   0   0   0   0   0   1   0   0   1   0   0   2   0   0   0   2   0   0   0   0   0   0   3   0   0   0   0  11 101 70 68 66 60 59 58 54 40 31 27 
   2   0   0   0   0   0   2   0   0   7   0   1   0   2   0   0   0   0   1   3   0   0   0   0   0   0   5   0   0   0   0  19 100 99 94 76 74 73 70 68 67 66 63 60 58 57 53 49 46 43 41 
   5   0   0   0   0   0   0   0   0   0   0   0   4   0   0   0   0   0   6   0   0   0   0   0   1   0   8   0   0   0   0  16 101 99 97 95 94 76 74 73 70 66 65 58 52 46 43 40 
   7   0   0   0   0   0   5   0   0   0   1   9   0   0   0   3   0   0   0   0   0   0   0   0   0   0   0   0   0   0   0  14 101 98 97 94 74 69 67 65 63 59 57 50 43 31 
   2   0   0   0   1   1   5   0   0   0   0   0   0   0   0   7   0   0   0  10   0   0   0   0   0   3   0   0   0   0   0  11 76 75 74 66 64 63 58 56 52 49 26 
   1   0   0   0   0   0   0   0   0   0   0   0   0   0   0   0   0   0   0   0   0   0   0   0   0   2   0   0   0   0   0  15 101 99 95 94 76 75 74 73 70 65 64 63 56 46 41 
   9   0   0   0   0   0   0   0   0   0   0  10   0   0   0   0   0   0   0   0   0   0   0   0   0   0   0   0   0   0   0  14 100 99 95 93 74 73 70 68 67 53 48 46 41 40 
   3   0   1   0   0   0   4   2   0   0   0   0   0   5   0   0   0   0   0   0   0   0   0   0   0   6   0   0   1   0   0  11 101 100 95 75 74 64 63 62 59 41 33 
   7   0   0   0   0   5   0   0   0   0   0   0   0   0   0   0   0   0   0   0   1   0   0   0   0   0   7   0   0   0   0   9 76 67 65 63 62 53 46 41 39 
   8   0   0   0   0   9   0   0   0   8   0   9   0   0   0   0   0   0   0   0   0   0   0   0   0   0   5   0   0   1   0  19 99 98 97 96 95 94 92 88 75 74 73 72 70 65 64 62 55 54 52 
   3   0   0   0   0   0   0   0   0   0   0   0   0   0   0   0   0   0   0   0   0   0   0   0   3   0   0   0   0   0   0  14 99 95 94 93 75 74 73 70 68 63 56 48 46 41 
   9   2   0   0   0   8   0   0   0   4   0   0   0   0   0   0   0   0   0   0   0   0   1   0   0   0   6   0   0   0   0  14 100 99 98 97 96 95 94 75 74 73 70 65 46 43 
   6   0   0   0   0   0   0   0   0   0   0   0   0   8   0   0   0   1   0   0   0   0   5   1   0   0   0   0   0   0   0  12 96 95 94 93 76 71 70 69 67 64 62 34 
   4   6   8   1   6   0   0   0   0   0   0   0   0   0   0   0   1   0   0   5   0   0   0   0   0   0   5   0   9   0   0  14 99 97 94 93 76 74 73 70 66 64 63 62 49 46 
   7   0   0   0   0   0   0   0   1   8   0   0  10   6   0   0   0   0   0   0   0   0   0   0   0   7   7   0   0   0   1  12 98 95 94 76 73 64 62 56 54 48 46 40 
   4  10   0   0   0   0   0   0   0   8   0   5   0   0   0   0   0   0   7   0   4   0   0   0   8   0   0   0   6   0   0   9 101 97 94 91 86 68 65 59 31 
   1   0   0   0   0   0   0   0   0   0   0   0   0   0   0   0   0   0   0   0   0   0   7  10   0   0   0   0   0   0   0   9 101 97 91 74 67 66 63 40 37 
   1   0   0   0   4   0   0   0   0   0   0   0   0   0   1   7   6   6   0   0   0   0   0   5   3   0   0   0   0   8   7  12 95 94 89 76 75 71 69 65 62 57 55 53 
   1   5   0   0   4   0   0   0   0   0   0   0   0   6   0   0   0   0   0   0   0   0   0   0   0   0   0   0   0   0   8  12 99 95 94 93 88 76 75 73 64 55 52 41 
   2   0   0   9   0   0   0   0   6   0   6   0   0   0   0   0   0   0   0   0   0   0   0   0   0   0   0   0   0   0   0  11 99 96 94 76 74 70 69 65 60 53 46 
   9   0   4   0   8   0   0   0   0   0   0   0   0   0   0  10   4   0   0   0   0   0   0   0   0  10   0   0   0   0   0  17 101 98 97 95 94 93 85 76 74 72 70 69 66 64 62 61 60 
   8   0   0   0   0   0   0   4  10   0   0   0   0   0   0   0   0   0   0   0   0   0   0   0   0   0   0   0   0   0   0  17 99 95 91 88 84 79 76 75 74 73 69 67 65 64 62 59 58 
   8   0   3   0   6   0   0   0   0   0   0   0   0   0   0   0   0   0   0   7   0   0   0   0   0   0  10   0   0   0   0  17 101 100 99 98 97 96 94 90 88 86 74 73 69 66 64 54 48 
   6   0   0   0   0   0   0   0   0   0   0   5   0   0   3   0   9   0   0   0   4   0   0   0   0   0   0   0   0   0   0  15 101 96 94 92 85 79 74 73 70 69 65 64 62 60 50 
   9   0   6   0   0   0   0   0   0   0   0   0   0   0   0   0   0   0   0   0   5   0   0   0   4   0   0   0   0   0   8  15 99 98 97 96 95 94 92 90 88 73 72 65 62 55 54 
   5   0   0   0   0   0   0   8   0   0   0   5   0   7   0   0   0   0   0   0   0   0   0   0   0   0   0   0   0   0   5  12 99 98 97 94 87 76 74 72 65 62 61 52 
   6   0   0   0   0   4   0   0   0   0   0   0   0   0   0   0   0   0   0   0   6   0   0   4   0   6   0   0   0   0   0  14 99 98 97 95 94 90 88 81 74 72 70 62 55 54 
   8   0   0   0   6   0   0   0   0   0   0   0   0   8   0   0   0   0   5   0   0   0   0   0   0   0   0   0   0   0   0  16 100 99 98 95 94 93 92 91 90 89 88 87 86 72 69 55 
   1   0   0   0   0   0   0   1   0   0   0   0   0   4   0   0   0   0   0   0   9   0   0   0   0   0   0   0   5   5   0  15 99 97 96 94 92 91 87 86 81 75 74 72 68 66 55 
   3   0   5   0   0   0   0   0   0   0   0   0   0   0   0   0   0   0   0   0   0   4   0   0   0   0   0   1   0   0   0   9 99 95 93 89 75 73 64 48 46 
   7   0   0   9  10   0   0   0   0   0   0   6   0   0   0   0   0   0   9   0   0   0   0   0   0   0   0   0   0   6   0  14 99 96 94 93 92 88 87 86 82 81 73 72 70 56 
  10   0   0   0   0   0   0   0   6   0   0   0   0   0   0   0   0   0   0   0   0   0   0   0   0   0   0   0   0   0   7  11 97 94 90 88 87 86 73 72 70 65 55 
   2   0   0   6   0   0   0   0   5   0   0   0   6   6   0   4   0   4   0   0   0   0   0   0   0   0   0   6   7   0   0  10 99 98 97 91 90 89 86 81 73 46 
   2   0   6   0   0   0   0   0   0   0   0   0   0   0   0   0   0   0   0   0   0   0   0   0   0   0   0   0   0   0   0   8 99 97 95 91 90 86 64 46 
   3   0   5   0   0   0   0  10   0   0   0   0   0   0   0   0   0   0   0   0   0   0   0   4   0   0   0   0   0   6   0  17 99 98 97 96 95 93 92 90 88 87 86 85 83 81 77 70 61 
  10   0   0   0   0   0   0   0   0   0   0   0   0   0   0   0   0   0   0   0   0   0   0   0   0   0   0   0   0   0   0  14 98 95 94 88 85 84 82 80 79 78 75 72 65 64 
   6   0   0   0   0   0   0   0   0   0   0   0   0   0   0   0   4   0   0   0   0   0   8   0   0   0   0   6   0   0   0  14 101 98 96 95 93 92 87 86 85 82 77 75 72 61 
   6   0   0   0   0   0   0   0   0   0   0   0   0   0   0   0   0   0   0   0   0   0   0   0   0   0   0   0   4   0   0  12 99 95 94 92 89 88 82 80 79 73 72 58 
   3   0   0   0   0   0   0   0   0   0   0   0   0   0   0   0   0   0   0   0   0   3   0   0   0   0   0   0   0   0   4   9 96 88 87 86 81 77 75 72 55 
  10   0   0   0   0   0   0   0   0   0   0   0   0   4   0   0   0   0   0   0   0   0   0   0   0   0   0   0   0   0   0  14 98 96 92 91 89 86 85 84 82 80 79 78 72 69 
   1   5   0   0   0   0   0   0   0   0   0   4   0   0   8   0   4   0   0   5   0   0   0   0   0   0   0   0   0   6   0   8 94 93 91 89 87 81 74 55 
   4   7   0   0   0   0   0   6   0   0   0   0   0   0   6   0   0   0   0   0   0   0   0   6   5   0   0   0   0   8   0   9 93 92 89 84 83 79 78 64 62 
   8   0   6   0   0   6   0   6   0   0   5   0   0   0   0   0   0   0   0   3   0   0   0   0   0   0   0   0   0   0   0  12 99 90 88 87 86 84 82 81 80 79 77 70 
   2   0   8   0   0   0  10   0   0   0   0   0   0   0   0   0   0   0   0   0   7   0   0   0   0   0   0   0   0   0   3  13 97 96 95 94 93 91 84 83 82 81 79 78 77 
   4   0  10   0   0   0   0   0   0   0   0   0   9   0   0   0   8   0   0   0   0   4   5   0   0   0   0   5   0   3   0   5 92 88 77 72 55 
   2   0   0   0   0   0   0   9   0   0   0   0   0   0   0   0   0   0   0   0   0   0   0   0   0   0   7   0   0   0   0   9 98 94 88 86 82 81 79 74 72 
  10   0   0   0   0   6   0   0  10   0   0   6   0   0   0   0   0   0   0   0   0   0   0   0   8   0   0  10   0   5   0   6 92 87 85 82 72 61 
   8   0   0   0   0   0   0   0   0   4   0   0   0   0   6   0   0   0   0   0   0   0   0   0   0   0   0   0   0   0   0  10 96 95 90 89 88 86 84 81 80 77 
  10   0   6   0   0   0   0   6   0   0   0   0   0   0   0   0  10   0   0   0   0   0   0   0   0   0   0   0   0   0   0   9 95 88 87 84 82 81 80 77 72 
   3   0   0   0   0   0   0   0   0   0   0   0   0   0   9   0   0   0   0   0  10   0   0   0   0   0  10   0   0   3   0   8 90 89 88 87 86 84 81 70 
   6   0   0   0   4   0   0  10   0   0   0   0   0   0   7   0   0   0   8   0   0   6   0   0   0   0   0   0   0   0   0   7 100 91 89 86 85 79 69 
   3   0   0   0   0   0   0   0   0   0   0   0   6   0   0   0   0   0   0   0   0   0   0   7   7   0   4   0   0   0   0   6 97 92 85 79 78 64 
   4   0   0   0   0   0   9   0   0   0   0   0   0   0   0   0   0   0   0   0   0   0   0   0   0   0   0   0   0   0   0   8 91 89 87 84 83 82 80 77 
   9   0   7   0   0   0   0  10   0   5   0   0   0   0   0   0   9   0   0   0   0   0   0   0   0   0   5   0   0   7   0   4 85 83 82 61 
   9   0   0   4   0   0   9   0   0   0   0   0   0   0   0   0   9   0   0   0   0   0   0   0   0   0   0   0   0   0   0   7 97 90 85 80 79 78 77 
   5   0   0   0  10   0   0   0   0   0   0   0   0   0   0   0   0   0   0   0   0   0  10   0   0   0   0   0   0   8   0   6 96 91 80 79 77 72 
   5   7   0   0   0   8   0   0   0   0   0   0   0   0   0   0   6   0   0   0   0   8   0   0   0   0   0   0   0   0   0   6 98 96 86 85 83 77 
   3   0   9   0   0   0   3   0   0   0   0   0   0   0   0   0   0   0   0   0   0   0   0   0   0   0   0   0   0   0   0   6 93 90 89 87 81 77 
   6   0   0   0   0   0   0   0   7   0   0   0   0   0   0   0   0   0   0   0   0   0   0   0   8   8   0   0   0   0   0   6 90 89 88 86 78 77 
   1   0   0   0   0   0   0   0   0   7   0   0   0   0   0   0   0   0   0   0   0   0   0   0   0   0   0   0   0   0   0   4 84 80 79 78 
   8   0   0   0   9   0   6   0   0   0   0   0   0   0   0   0   3   0   0   0   0   0   0   0   0   0   0   0   0   0   0   4 86 82 80 77 
   5   0   0   0  10   0   0   0   0   3   0   0   0   7   0   0   0   0   4   0   0   0   0   0   0   0   0   0   0   0   0   4 89 80 79 78 
   1   0   0   0   0   0   0   0   0   0   0   0   0  10   0   0   0   0   0   0   0   0   0   0   0   0   0   0   4   0   0   3 87 81 77 
  10   0   0   6   0   0   0   4   0   0   0   0   0   3  10   0   0   0   0   0   6   0   0   0   0   9   0   0   0   0   0   3 93 81 77 
   8   0   0   0   0   0   0   0   0   0   0   0   0   0   0   0   0   0   0   7   0   0   0   0   0   0   3   0   5   0   0   3 84 82 77 
   1   5   0   0   0   0   0   5   0   0   9   0   0   0   0   0   0   0   0   0   0   0   0   0   0   0   0   4   0   0   0   3 81 78 77 
   8   0   0   0   0   0   0   0   0   9   0   0   0   5   2   5   0   4   0   0   0   0   0   0   5   0   0   0   7   0   0   3 89 82 78 
   3   0   0   0   0   0   0   0   0   0   0   0   0   0   7   0   0   0   7   6   0   0   0   0   6   3   0   0   8   0   0   2 81 77 
   6   0   0   0   0   0   0   8   0   0   0   0   0   0   0   7   0   0   0   0   0   0   6   0   7   7   0   0   0   0   0   2 91 78 
   9   0   0   0   0   0   0   0   0   0   0   0   0   0   0   0   0   0   0   0   0   0   4   0   0   0   0   0   9   0   0   2 88 77 
   8   0   6   0   0   0   7   0   9   0   0   0   0   9   0   0   0   0   0   0   0   0   0   0   0   0   0   0   0   0   0   1 83 
   6   0   0   7   4   0   0   0   0   0   0   0   0   0   0   0   0   0   0   0   6   0   0   0   0   4   0   8   0   0   0   1 77 
  10   0   0   0   0   0   0   0   7   0   0   0   0   0   0   0   0   0   0   0   0   0   0   0   0   0   0   0   0   0   0   1 77 
   4   0   0   6   0   0   0   0   0   0   0   5  10   0   0   0   0   0   0   0   0   0   0   0   0   0   4   0   0   0   7   1 90 
   4   0   0   0   0   0   0   3   0   7   9   0   3   0   0   0   0   8   0   8   5  10   0   7   0   0   8   0   0   0   0   1 92 
   1   0   0   0   0   0   0   0   0   0   0   4   0   0   0   5   0   0   0   0   0   0   0   0   0   0   0   0   0   0   0   1 102
   9   0   0   0   0   0   0   4   0   0   0   0   0   5   0   0   0   0   0   0   0   0   0   0   0   0   0   6   3   0   4   1 102
   3   0   0   0   0   0   0   0   0   0   0   0   0   3   0   0   0   0   0   0   0   0   0   0   0   0   0   0   9   7   0   1 102
   8   0   4   0   0   0   0   0   7   0   0   6   0   0   6   0   0   0   0   0   0   0   4   8   6   0   0   0   0   0   0   1 102
   2   0   9   0   0   0   0   0   0   0   0   7   0   0   0   0   5   0   0   0   0   0   0   0   0   0   5   0   0   0   9   1 102
   9   0   0   6   0   0   0   8   3   0   0   0   0   0   0   0   0   8   0   0   0   0   0   0   0   0   0   0   0   0   0   1 102
   3   8   0   0   0   0   0   0   0   0   0   0   0   0   0   0   0   0   0   0   0   0   0   0   0   0   0   0   0   0   0   1 102
   3   0   0   0   0   0   0   0   0   0   0   3   0   9   0   0   0   0   0   0   0   0   0   0   0   0   0   0   0   0   0   1 102
   1   0   0   0   0   0   0   0   0   0   0   0   0   0   0   0   0   0   0   9   9   0   0   8   0   0   0   0   0   0   0   1 102
   8   0   0   6   0   0   0   5   0   0   0   0   0   0   8   0   6   0   0   0   0   0   9   0   0   0   0   0   0   0   0   1 102
   1   0   0   0   0   0   0   0   0   0   0   6   0   0   0   0   0   0   0   0   0   0   0   0   0   0   0   0   4   0   0   1 102
   9   0   5   0   0   0   0   0   0   0   0   0   0   0   0   0   0   0   0   0   0   0   0   0   0   6   0   0   0   0   0   1 102
   6   5   0   0   0   0   0   0   5   0   0   0   0   0   0   6   0   0   7   0   0   0   0   0   3   0   0   0   0   0   0   1 102
   1   0   0   0   0   0   0   0   3   0   0   0   0   0   0   0   0   8   0   0   0   0   0   0   0   0   0   0   0   0   0   1 102
   6   0   0   0   5   0   0   0   0   0   0   8   4   0   8   0   0   0   0   0   0   0   0   0   9   0   0   0   9   8   9   1 102
   7   0   0   0   0   0   0   0   0   0   0   0   0   0   0  10   0   0   0   0   0   0   0   5   0   0   0   0   0   0   0   1 102
   1   0   0   0   0   0   0   0   0   0   0   0   0   0   0   0   0   0   0   0   0   0   0   0   0   6   0   8   0   0   0   1 102
  10   0   0   0   0   0   0   5   5   0   0   0   0   0   0   0   0   9   0   8   0   7   0   0   0   0   0   0   0   0   0   1 102
  10   0   0   0   0   0   0   0   0   7   0   0   0   0   0   0   0   0   0   0   0   0   0   0   0   0   0   0   0   9   0   1 102
   7   0   0   0   0   0   0   0   0   0   0   0   0   0   0   0   0   0   0   0   0   0   0   0   0   7   0   6   0   0   0   1 102
   8   0   0   0   0   0   0   0   0   0   0  10   8   3   0   0   6   0   0   5   0   0   0   0   0   0   0   0   0   0   0   1 102
   5   0   0   0   0   6   0   0   0   0   0   0   5   0   3   0   0   0   0   0   0   0   5   0   9   0   0   0   0   0   0   1 102
   3   0   0   0   0   7   0   0   0   0   0   0   0   0   0   0   0   6   0   0   0   0   0   7   0   0   0   0   0   0   0   1 102
   6   0   0   0   3   0   0   0   0   0   0   5   0  10   0   0   0   0   0   0   0   0   0   0   0   0   0   0   0   0   0   1 102
   2   0   0   0   0   0   6   0   0   0   0   0   0   0   0   0   0   0   0   0   0   0   8   0  10   0   0   0   6   0   0   1 102
   0   0   0   0   0   0   0   0   0   0   0   0   0   0   0   0   0   0   0   0   0   0   0   0   0   0   0   0   0   0   0   0 
